NAME : kroB100-C-3-1-a__cluster__26638.tour
COMMENT : Length = 26638.000
COMMENT : Generated by compare_sota_instances.py for cluster
TYPE : TOUR
DIMENSION : 100
TOUR_SECTION
88
22
23
47
81
79
65
37
72
38
20
80
30
75
69
100
56
26
62
5
67
70
40
39
53
73
85
10
68
49
86
21
46
90
1
95
3
93
11
28
91
97
76
99
8
29
32
59
98
12
71
9
25
27
34
7
58
54
52
84
57
94
61
35
66
87
74
60
89
43
50
77
18
55
24
96
19
92
44
41
36
45
17
78
16
2
13
63
31
48
51
15
6
4
33
82
64
83
14
42
-1
EOF
